webassembly/ejemplos_dzn/folder9_json_2.dzn
TERM = { '.', 'in_1', 'local_0', 'local_1', 'in_2', 'in_4', 'in_3', 's(1)', 's(0)', 'in_0'};
null = '.';
s = 9;
n = 11;
ndeps = 3;
max_registers_sz = 5;
NR = 2;
registers = [|'local_0', 's(0)', |'local_1', 'in_1'|];
dependencies = [|'i32.store8_1', 'i32.store_3', |'i32.store_3', 'i32.load_6', |'i32.store_3', 'i32.load8_s_8'|];
GET_ENUM = { GET1, GET2, GET3, GET4, GET5, GET6, GET7};
SET_ENUM = { SET1, SET2, SET3, SET4, SET5, SET6, SET7};
TEE_ENUM = { TEE1, TEE2, TEE3, TEE4, TEE5, TEE6, TEE7};
N = 4;
OP = { 'i32.store8_1', 'i32.store_3', 'i32.load_6', 'i32.load8_s_8' };
in_ops = [2, 2, 1, 1 ];
out_ops = [0, 0, 1, 1 ];
in1 = ['local_0', 'in_2', 'in_1', 'in_4' ];
in2 = ['in_0', 'in_3', '.', '.' ];
in3 = ['.', '.', '.', '.' ];
out1 = ['.', '.', 's(0)', 's(1)' ];
out2 = ['.', '.', '.', '.' ];
out3 = ['.', '.', '.', '.' ];
comm = [false, false, false, false ];
gas = [1, 1, 1, 1 ];
sz = [1, 1, 1, 1 ];
stor = [true, true, false, false ];
lb = [ 1, 1, 1, 1 ];
ub = [ 9, 9, 9, 9 ];
startstack = [ 'in_0', 'in_1', 'in_2', 'in_3', 'in_4', null, null, null, null, null, null ];
endstack = [ 's(1)', null, null, null, null, null, null, null, null, null, null ];
